(set-info :smt-lib-version 2.6)
(set-logic QF_UFLRA)
(set-info :source |
MathSat group

|)
(set-info :category "random")
(set-info :status sat)
(declare-fun x0 () Real)
(declare-fun x1 () Real)
(declare-fun x2 () Real)
(declare-fun x3 () Real)
(declare-fun x4 () Real)
(declare-fun x5 () Real)
(declare-fun x6 () Real)
(declare-fun x7 () Real)
(declare-fun x8 () Real)
(declare-fun x9 () Real)
(declare-fun x10 () Real)
(declare-fun x11 () Real)
(declare-fun x12 () Real)
(declare-fun x13 () Real)
(declare-fun x14 () Real)
(declare-fun x15 () Real)
(declare-fun x16 () Real)
(declare-fun x17 () Real)
(declare-fun x18 () Real)
(declare-fun x19 () Real)
(declare-fun x20 () Real)
(declare-fun x21 () Real)
(declare-fun x22 () Real)
(declare-fun x23 () Real)
(declare-fun x24 () Real)
(declare-fun x25 () Real)
(declare-fun x26 () Real)
(declare-fun x27 () Real)
(declare-fun x28 () Real)
(declare-fun x29 () Real)
(declare-fun x30 () Real)
(declare-fun x31 () Real)
(declare-fun x32 () Real)
(declare-fun x33 () Real)
(declare-fun x34 () Real)
(declare-fun x35 () Real)
(declare-fun x36 () Real)
(declare-fun x37 () Real)
(declare-fun x38 () Real)
(declare-fun x39 () Real)
(declare-fun x40 () Real)
(declare-fun x41 () Real)
(declare-fun x42 () Real)
(declare-fun x43 () Real)
(declare-fun x44 () Real)
(declare-fun x45 () Real)
(declare-fun x46 () Real)
(declare-fun x47 () Real)
(declare-fun x48 () Real)
(declare-fun x49 () Real)
(declare-fun f0_1 (Real) Real)
(declare-fun f0_2 (Real Real) Real)
(declare-fun f0_3 (Real Real Real) Real)
(declare-fun f0_4 (Real Real Real Real) Real)
(declare-fun P0 () Bool)
(declare-fun P1 () Bool)
(declare-fun P2 () Bool)
(declare-fun P3 () Bool)
(declare-fun P4 () Bool)
(declare-fun P5 () Bool)
(declare-fun P6 () Bool)
(declare-fun P7 () Bool)
(declare-fun P8 () Bool)
(declare-fun P9 () Bool)
(declare-fun P10 () Bool)
(declare-fun P11 () Bool)
(declare-fun P12 () Bool)
(declare-fun P13 () Bool)
(declare-fun P14 () Bool)
(declare-fun P15 () Bool)
(declare-fun P16 () Bool)
(declare-fun P17 () Bool)
(declare-fun P18 () Bool)
(declare-fun P19 () Bool)
(declare-fun P20 () Bool)
(declare-fun P21 () Bool)
(declare-fun P22 () Bool)
(declare-fun P23 () Bool)
(declare-fun P24 () Bool)
(declare-fun P25 () Bool)
(declare-fun P26 () Bool)
(declare-fun P27 () Bool)
(declare-fun P28 () Bool)
(declare-fun P29 () Bool)
(declare-fun P30 () Bool)
(declare-fun P31 () Bool)
(declare-fun P32 () Bool)
(declare-fun P33 () Bool)
(declare-fun P34 () Bool)
(declare-fun P35 () Bool)
(declare-fun P36 () Bool)
(declare-fun P37 () Bool)
(declare-fun P38 () Bool)
(declare-fun P39 () Bool)
(declare-fun P40 () Bool)
(declare-fun P41 () Bool)
(declare-fun P42 () Bool)
(declare-fun P43 () Bool)
(declare-fun P44 () Bool)
(declare-fun P45 () Bool)
(declare-fun P46 () Bool)
(declare-fun P47 () Bool)
(declare-fun P48 () Bool)
(declare-fun P49 () Bool)
(assert (let ((?v_148 (* 27 x30)) (?v_113 (* 6 x6)) (?v_14 (< (- (- (* 3 x2) (* 5 x5)) (* 11 x6)) 2)) (?v_69 (* 7 x49)) (?v_121 (* 22 x14)) (?v_0 (= (- (- (* 12 x20) (* 10 x24)) (* 7 x2)) 0)) (?v_115 (< (+ (- (* 2 x1) (* 17 x7)) (* 15 x48)) 14)) (?v_13 (<= (- (+ (* 27 x21) (* 19 x23)) (* 12 x32)) 23))) (let ((?v_141 (<= (- (+ ?v_121 (* 21 x2)) (* 3 x22)) 27)) (?v_30 (<= (- (+ (* 17 x16) (* 15 x1)) (* 8 x18)) 19)) (?v_152 (* 6 x29)) (?v_108 (distinct (+ (- (* 15 x5) (* 27 x41)) (* 23 x43)) 29)) (?v_107 (< (+ (- (* 25 x20) (* 8 x49)) (* 23 x8)) 8)) (?v_53 (<= (+ (- (* 27 x46) (* 8 x22)) (* 19 x44)) 19)) (?v_119 (f0_1 x11))) (let ((?v_135 (= ?v_119 (f0_2 x27 x20))) (?v_59 (f0_1 x46))) (let ((?v_123 (distinct (f0_1 x31) ?v_59)) (?v_206 (= x44 (f0_2 x14 x46))) (?v_16 (f0_1 x18))) (let ((?v_74 (distinct ?v_16 (f0_2 x28 x33))) (?v_60 (distinct (f0_2 x14 x24) (f0_2 x12 x7))) (?v_7 (distinct (f0_2 x7 x30) x23)) (?v_82 (distinct (f0_1 x16) (f0_2 x44 x26))) (?v_98 (= x23 x14)) (?v_212 (= x45 (f0_2 x16 x15))) (?v_127 (f0_1 x7))) (let ((?v_254 (= (f0_2 x37 x2) ?v_127)) (?v_177 (distinct x0 (f0_2 x35 x30))) (?v_138 (distinct (f0_2 x43 x16) (f0_2 x4 x19))) (?v_208 (distinct x35 x5)) (?v_87 (= x14 (f0_1 x2))) (?v_18 (f0_1 x0))) (let ((?v_35 (distinct x31 ?v_18)) (?v_176 (= (f0_1 x37) ?v_59)) (?v_73 (distinct (f0_2 x24 x40) (f0_2 x3 x37))) (?v_171 (distinct (f0_2 x4 x30) (f0_2 x5 x34))) (?v_106 (= (f0_2 x19 x9) (f0_1 x10))) (?v_243 (distinct (f0_2 x1 x10) (f0_1 x36))) (?v_187 (distinct x40 ?v_18)) (?v_5 (f0_1 x47)) (?v_22 (f0_1 x49))) (let ((?v_29 (= ?v_5 ?v_22)) (?v_63 (distinct (f0_1 x38) x40)) (?v_54 (= (f0_2 x16 x25) x27)) (?v_102 (distinct (f0_1 x32) (f0_1 x14))) (?v_17 (= (f0_2 x47 x0) x31)) (?v_202 (= ?v_5 (f0_2 x42 x2))) (?v_72 (distinct ?v_22 (f0_2 x15 x16))) (?v_46 (= (f0_1 x22) x38)) (?v_247 (distinct x7 x20)) (?v_2 (f0_1 x25))) (let ((?v_15 (distinct (f0_2 x9 x17) ?v_2)) (?v_27 (= x46 x0)) (?v_62 (= x33 x19)) (?v_42 (distinct x23 (f0_2 x20 x33))) (?v_204 (= (f0_2 x40 x6) x4)) (?v_26 (= (f0_1 x21) (f0_1 x28))) (?v_21 (= ?v_5 x41)) (?v_145 (= x38 x33)) (?v_109 (distinct x36 (f0_2 x27 x11))) (?v_125 (distinct x31 ?v_5)) (?v_40 (distinct x1 (f0_1 x26))) (?v_51 (= (f0_2 x32 x46) (f0_2 x29 x11))) (?v_231 (distinct (f0_1 x45) ?v_119)) (?v_70 (distinct ?v_18 ?v_2)) (?v_174 (distinct x3 ?v_127)) (?v_24 (distinct (f0_1 x5) x41)) (?v_162 (distinct (f0_2 x43 x9) (f0_2 x28 x40))) (?v_166 (= (f0_2 x6 x6) ?v_2)) (?v_65 (= x10 (f0_2 x3 x40))) (?v_220 (= x12 ?v_16)) (?v_57 (not ?v_115)) (?v_213 (not ?v_0))) (let ((?v_3 (not ?v_125)) (?v_8 (not ?v_254)) (?v_1 (not ?v_14)) (?v_75 (not ?v_70)) (?v_118 (not P23)) (?v_6 (not ?v_243)) (?v_39 (not ?v_82)) (?v_190 (not P24)) (?v_140 (not P34)) (?v_9 (not ?v_65)) (?v_56 (not P47)) (?v_211 (not P33)) (?v_217 (not ?v_60)) (?v_114 (not P45)) (?v_111 (not P2)) (?v_58 (not P29)) (?v_160 (not ?v_15)) (?v_88 (not ?v_220)) (?v_143 (not P38)) (?v_186 (not P42)) (?v_32 (not ?v_106)) (?v_99 (not ?v_35)) (?v_43 (not P5)) (?v_61 (not ?v_29)) (?v_36 (not ?v_87)) (?v_33 (not ?v_72)) (?v_105 (not ?v_27)) (?v_64 (not ?v_24)) (?v_91 (not ?v_135)) (?v_48 (not ?v_13)) (?v_236 (not P1)) (?v_84 (not P43)) (?v_97 (not ?v_108)) (?v_151 (not ?v_42)) (?v_96 (not ?v_212)) (?v_112 (not ?v_54)) (?v_199 (not ?v_40)) (?v_137 (not P10)) (?v_158 (not P46)) (?v_226 (not P30)) (?v_147 (not ?v_98)) (?v_78 (not ?v_53)) (?v_71 (not P15)) (?v_92 (not P39)) (?v_67 (not P41)) (?v_77 (not ?v_62)) (?v_144 (not ?v_202)) (?v_130 (not ?v_63)) (?v_146 (not ?v_208))) (let ((?v_81 (or ?v_71 ?v_71)) (?v_89 (not P8)) (?v_101 (not P22)) (?v_95 (not P28)) (?v_100 (not ?v_46)) (?v_117 (not P35)) (?v_225 (not P26)) (?v_241 (not P16)) (?v_214 (not ?v_109)) (?v_110 (not P12)) (?v_150 (not P48)) (?v_159 (not P13)) (?v_132 (not P7)) (?v_126 (not ?v_7)) (?v_182 (not P9)) (?v_180 (not ?v_231)) (?v_131 (not P49)) (?v_210 (not P25)) (?v_215 (not ?v_26)) (?v_129 (not ?v_174)) (?v_165 (not ?v_21))) (let ((?v_222 (or ?v_145 ?v_110)) (?v_167 (not ?v_102)) (?v_242 (not ?v_51)) (?v_233 (not ?v_107)) (?v_201 (not ?v_204)) (?v_257 (not ?v_206)) (?v_219 (not ?v_138)) (?v_181 (not P40)) (?v_248 (not P27)) (?v_198 (not ?v_162)) (?v_238 (not P18)) (?v_193 (not ?v_74)) (?v_228 (not ?v_73)) (?v_256 (not ?v_166)) (?v_234 (not ?v_171)) (?v_175 (not P20)) (?v_191 (not P3)) (?v_255 (not ?v_176)) (?v_192 (not P37)) (?v_223 (not P36)) (?v_262 (not ?v_141)) (?v_227 (not ?v_177)) (?v_218 (not P4)) (?v_203 (not P17)) (?v_197 (not ?v_187)) (?v_230 (not ?v_145)) (?v_232 (not ?v_123)) (?v_246 (not P21)) (?v_258 (not ?v_247)) (?v_229 (not P14)) (?v_239 (not P31)) (?v_251 (not P32)) (?v_240 (not P0)) (?v_253 (not P6)) (?v_245 (not P19)) (?v_263 (not ?v_17)) (?v_259 (not P44))) (let ((?v_264 (or ?v_255 ?v_96)) (?v_28 (< (- ?v_113 (* 15 x49)) 2))) (let ((?v_52 (not ?v_28)) (?v_224 (= (- (- 0 (* 25 x46)) (* 6 x12)) 1))) (let ((?v_37 (not ?v_224)) (?v_122 (< (- (+ x31 (* 24 x46)) (* 15 x7)) 29))) (let ((?v_45 (not ?v_122)) (?v_79 (= (* 22 x12) 0)) (?v_134 (distinct (- (* 6 x18) (* 3 x5)) 23))) (let ((?v_235 (not ?v_134)) (?v_172 (not ?v_79)) (?v_252 (< (+ (* 18 x29) ?v_148 x47) 18))) (let ((?v_205 (not ?v_252)) (?v_168 (< (+ (* 5 x33) (* 10 x5) (* 2 x48)) 15))) (let ((?v_173 (not ?v_168)) (?v_25 (< (- (- x19 (* 17 x42)) (* 9 x27)) (- 24)))) (let ((?v_80 (not ?v_25)) (?v_12 (<= (- (+ (* (- 8) x46) (* 12 x47)) (* 12 x19)) (- 18)))) (let ((?v_50 (not ?v_12)) (?v_93 (< (- (+ (* (- 10) x10) (* 24 x39)) (* 7 x27)) (- 16)))) (let ((?v_153 (not ?v_93)) (?v_20 (distinct (- (+ (* 15 x32) (* 2 x34)) (* 12 x25)) (- 3))) (?v_4 (< (- (* 15 x38) x6) (- 23))) (?v_183 (<= (+ ?v_121 (* 23 x5) (* 11 x42)) (- 13)))) (let ((?v_104 (not ?v_183)) (?v_10 (* (- 8) x25))) (let ((?v_44 (< (+ ?v_10 (* 4 x39) (* 19 x25)) (- 20))) (?v_38 (<= (- (- (* (- 4) x5) (* 14 x23)) (* 4 x48)) 2)) (?v_34 (< (- (+ (* (- 23) x36) (* 5 x8)) ?v_148) (- 16)))) (let ((?v_11 (not ?v_34)) (?v_85 (distinct (- (+ (* (- 3) x28) (* 26 x20)) (* 15 x34)) (- 15)))) (let ((?v_23 (not ?v_85)) (?v_154 (<= (+ (- (* 5 x48) (* 14 x11)) (* 4 x3)) (- 14)))) (let ((?v_124 (not ?v_154)) (?v_128 (<= (+ ?v_10 (* 15 x29)) (- 13))) (?v_216 (< (+ (- (* (- 20) x3) (* 10 x45)) (* 10 x2)) 25))) (let ((?v_163 (not ?v_216)) (?v_169 (< (+ (* (- 2) x6) (* 20 x23) (* 9 x43)) 13))) (let ((?v_120 (not ?v_169)) (?v_170 (< (+ (- (* (- 20) x26) (* 11 x10)) (* 20 x47)) 19))) (let ((?v_103 (not ?v_170)) (?v_68 (< (- (* 17 x13) (* 23 x25)) (- 26))) (?v_31 (= (- (- (* (- 25) x11) (* 4 x17)) (* 12 x39)) (- 21))) (?v_189 (<= (- (+ (* (- 12) x22) (* 16 x24)) (* 23 x19)) (- 21)))) (let ((?v_133 (not ?v_189)) (?v_157 (<= (- (+ (* (- 11) x22) (* 2 x10)) ?v_152) 11))) (let ((?v_156 (not ?v_157)) (?v_142 (<= (+ (- (* 6 x14) (* 27 x7)) (* 6 x27)) (- 26))) (?v_19 (< (+ (* 19 x22) x46 (* 2 x29)) (- 22))) (?v_184 (not ?v_20)) (?v_49 (<= (- (- (* (- 8) x45) (* 18 x7)) (* 22 x5)) (- 1))) (?v_83 (< (+ (* (- 2) x12) x40 (* 20 x35)) 18)) (?v_66 (< (- (+ (* (- 19) x5) ?v_69) (* 14 x45)) 26)) (?v_90 (not ?v_38)) (?v_41 (= (- (- (* 8 x37) (* 16 x2)) (* 25 x18)) (- 16)))) (let ((?v_237 (not ?v_41)) (?v_47 (not ?v_44)) (?v_55 (<= (- (* 26 x37) (* 15 x26)) (- 28)))) (let ((?v_76 (not ?v_55)) (?v_86 (< (+ (* (- 16) x33) (* 7 x12) x25) 4)) (?v_94 (not ?v_68)) (?v_260 (< (- (+ (* (- 9) x44) (* 13 x16)) ?v_69) (- 13)))) (let ((?v_116 (not ?v_260)) (?v_196 (not ?v_86)) (?v_185 (< (+ (- (* (- 11) x18) (* 3 x47)) (* 7 x4)) (- 26)))) (let ((?v_250 (not ?v_185)) (?v_178 (not ?v_31)) (?v_139 (not ?v_66)) (?v_194 (< (+ (* (- 10) x6) ?v_113 (* 24 x11)) (- 16)))) (let ((?v_136 (not ?v_194)) (?v_155 (< (+ (- (* (- 5) x9) x46) (* 27 x15)) 8)) (?v_164 (= (- (+ (* (- 14) x28) (* 2 x26)) (* 12 x8)) 17))) (let ((?v_149 (not ?v_164)) (?v_161 (not ?v_128)) (?v_261 (not ?v_19)) (?v_195 (<= (- (+ (* (- 2) x35) ?v_152) (* 22 x1)) 26))) (let ((?v_188 (not ?v_195)) (?v_244 (not ?v_155)) (?v_200 (or ?v_155 P35)) (?v_209 (not ?v_83)) (?v_221 (<= (+ (- (* (- 17) x32) (* 25 x2)) (* 25 x48)) 0))) (let ((?v_179 (not ?v_221)) (?v_207 (not ?v_49)) (?v_249 (not ?v_142))) (and (and (and (and (and (and (and (and (and (and (and (and (and (and (and (and (and (and (and (and (and (and (and (and (and (and (and (and (and (and (and (and (and (and (and (and (and (and (and (and (and (and (and (and (and (and (and (and (and (and (and (and (and (and (and (and (and (and (and (and (and (and (and (and (and (and (and (and (and (and (and (and (and (and (and (and (and (and (and (and (and (and (and (and (and (and (and (and (and (and (and (and (and (and (and (and (and (and (and (and (and (and (and (and (and (and (and (and (and (and (and (and (and (and (and (and (and (and (and (and (and (and (and (and (and (and (and (and (and (and (and (and (and (and (and (and (and (and (and (and (and (and (and (and (and (and (and (and (and (and (and (and (and (and (and (and (and (and (and (and (and (and (and (and (and (and (and (and (and (and (and (and (and (and (and (and (and (and (and (and (and (and (and (and (and (and (and (and (and (and (and (and (and (and (and (and (and (and (and (and (and (and (and (and (and (and (and (and (and (and (and (and (and (and (and (and (and (and (and (and (and (and (and (and (and (and (and (and (and (and (and (and (and (and (and (and (and (and (and (and (and (and (and (and (and (and (and (and (and (and (and (and (and (and (and (and (and (and (and (and (and (and (and (and (and (and (and (and (and (and (and (and (and (and (and (and (and (and (and (and (and (and (and (and (and (and (and (and (and (and (and (and (and (and (and (and (and (and (and (and (and (and (and (and (and (and (and (and (and (and (and (and (and (and (and (and (and (and (and (and (and (and (and (and (and (and (and (and (and (and (and (and (and (and (and (and (and (and (and (and (and (and (and (and (and (and (and (and (and (and (and (and (and (and (and (and (and (and (and (and (and (and (and (and (and (and (and (and (and (and (and (and (and (and (and (and (and (and (and (and (and (and (and (and (and (and (and (and (and (and (and (and (and (and (and (and (and (and (and (and (and (and (and (and (and (and (and (and (and (and (and (and (and (and (and (and (and (and (and (and (and (and (and (and (and (and (and (and (and (and (and (and (and (and (and (and (and (and (and (and (and (and (and (and (and (and (and (and (and (and (and (and (and (and (and (and (and (and (and (and (and (and (and (and (and (and (and (and (and (and (and (and (and (and (and (and (and (and (and (and (and (and (and (and (and (and (and (and (and (and (and (and (and (and (and (and (and (and (and (and (and (and (and (and (and (and (and (and (and (and (and (and (and (and (and (and (and (and (and (and (and (and (and (and (and (and (and (and (and (and (and (and (and (and (and (and (and (and (and (and (and (and (and (and (and (and (and (and (and (and (and (and (and (and (and (and (and (and (and (and (and (and (and (and (and (and (and (and (and (and (and (and (and (and (and (and (and (and (and (and (and (and (and (and (and (and (and (and (and (and (and (and (and (and (and (and (and (and (and (or (or ?v_80 P15) ?v_50) (or (or ?v_153 ?v_57) ?v_20)) (or (or ?v_7 ?v_213) ?v_52)) (or (or ?v_13 P45) ?v_24)) (or (or ?v_30 ?v_3) ?v_37)) (or (or ?v_8 ?v_0) ?v_1)) (or (or ?v_74 ?v_75) ?v_51)) (or (or ?v_46 ?v_118) ?v_4)) (or (or ?v_104 ?v_6) P15)) (or (or ?v_1 ?v_44) ?v_38)) (or (or ?v_15 ?v_3) ?v_4)) (or (or ?v_17 ?v_21) ?v_6)) (or (or ?v_176 ?v_7) ?v_39)) (or (or ?v_107 P39) P14)) (or (or ?v_11 ?v_190) P44)) (or (or ?v_23 ?v_8) ?v_73)) (or (or ?v_140 ?v_9) ?v_56)) (or (or ?v_211 ?v_63) ?v_124)) (or (or ?v_9 ?v_217) ?v_128)) (or (or ?v_114 ?v_40) P28)) (or (or ?v_11 P22) ?v_163)) (or (or ?v_12 P38) ?v_111)) (or (or ?v_120 ?v_166) ?v_13)) (or (or ?v_14 ?v_103) P31)) (or (or ?v_68 P30) ?v_58)) (or (or ?v_160 ?v_31) ?v_88)) (or (or ?v_133 ?v_156) P32)) (or (or ?v_142 ?v_143) ?v_186)) (or (or ?v_17 P8) ?v_19)) (or (or ?v_32 ?v_99) ?v_6)) (or (or ?v_62 ?v_43) ?v_26)) (or (or P9 ?v_11) ?v_19)) (or (or P9 ?v_61) ?v_36)) (or (or ?v_184 ?v_21) ?v_33)) (or (or ?v_105 ?v_23) ?v_24)) (or (or ?v_64 ?v_25) ?v_26)) (or (or ?v_91 ?v_27) ?v_28)) (or (or ?v_49 ?v_48) ?v_29)) (or (or ?v_83 P14) ?v_236)) (or (or ?v_30 ?v_31) ?v_32)) (or (or ?v_33 ?v_66) ?v_34)) (or (or ?v_84 ?v_13) ?v_35)) (or (or ?v_97 ?v_36) ?v_151)) (or (or ?v_45 ?v_96) ?v_37)) (or (or P46 P24) P36)) (or (or ?v_112 ?v_9) ?v_102)) (or (or P10 ?v_90) ?v_39)) (or (or ?v_0 ?v_41) ?v_199)) (or (or ?v_237 ?v_137) ?v_79)) (or (or ?v_42 ?v_43) ?v_47)) (or (or ?v_45 ?v_46) ?v_47)) (or (or ?v_44 ?v_158) P43)) (or (or ?v_48 ?v_226) ?v_76)) (or (or ?v_49 ?v_50) ?v_51)) (or (or P32 ?v_40) ?v_147)) (or (or ?v_78 P27) ?v_86)) (or (or ?v_52 ?v_43) ?v_71)) (or (or ?v_92 ?v_53) P44)) (or (or ?v_54 ?v_41) ?v_55)) (or (or P45 P44) ?v_56)) (or (or ?v_57 P29) ?v_44)) (or (or ?v_58 ?v_3) ?v_1)) (or (or ?v_67 ?v_123) P47)) (or (or ?v_60 P36) ?v_15)) (or (or ?v_61 ?v_3) ?v_77)) (or (or ?v_144 P14) ?v_130)) (or (or ?v_64 ?v_65) ?v_146)) (or (or ?v_66 ?v_67) ?v_94)) (or (or ?v_116 ?v_70) ?v_51)) (or ?v_81 ?v_15)) (or (or ?v_72 ?v_73) ?v_235)) (or (or ?v_109 P36) ?v_74)) (or (or P38 ?v_75) ?v_76)) (or (or ?v_89 ?v_101) ?v_35)) (or (or P40 ?v_77) ?v_73)) (or (or P29 ?v_78) ?v_27)) (or (or ?v_13 ?v_9) ?v_71)) (or (or ?v_172 ?v_80) P43)) (or ?v_81 ?v_82)) (or (or ?v_74 P26) ?v_83)) (or (or ?v_56 P18) ?v_13)) (or (or ?v_84 ?v_85) ?v_196)) (or (or ?v_87 ?v_250) ?v_95)) (or (or P47 P40) ?v_42)) (or (or P23 ?v_28) ?v_65)) (or (or ?v_100 ?v_88) ?v_89)) (or (or ?v_90 ?v_91) ?v_92)) (or (or ?v_48 P20) ?v_93)) (or (or ?v_44 ?v_94) ?v_95)) (or (or P22 ?v_96) ?v_117)) (or (or ?v_97 P14) P29)) (or (or ?v_28 ?v_171) P23)) (or (or ?v_33 ?v_98) ?v_99)) (or (or P30 P22) ?v_100)) (or (or ?v_101 ?v_72) ?v_225)) (or (or P39 ?v_102) ?v_39)) (or (or ?v_15 P14) ?v_178)) (or (or ?v_45 ?v_89) ?v_103)) (or (or ?v_104 ?v_45) ?v_83)) (or (or ?v_105 ?v_241) ?v_106)) (or (or ?v_107 ?v_108) ?v_177)) (or (or ?v_214 ?v_110) ?v_105)) (or (or ?v_110 ?v_103) P14)) (or (or ?v_111 P38) P18)) (or (or ?v_48 ?v_48) ?v_39)) (or (or ?v_139 P9) P48)) (or (or ?v_112 ?v_4) P42)) (or (or ?v_136 ?v_150) ?v_114)) (or (or P41 ?v_115) ?v_159)) (or (or ?v_116 ?v_117) ?v_118)) (or (or P16 ?v_98) ?v_28)) (or (or ?v_132 P37) ?v_126)) (or (or P33 ?v_91) ?v_182)) (or (or ?v_35 ?v_180) ?v_45)) (or (or ?v_120 ?v_26) ?v_17)) (or (or ?v_155 ?v_141) ?v_131)) (or (or ?v_25 ?v_101) ?v_49)) (or (or ?v_85 ?v_63) P12)) (or (or ?v_122 ?v_32) ?v_30)) (or (or ?v_210 ?v_123) ?v_64)) (or (or P9 ?v_63) ?v_117)) (or (or ?v_124 ?v_87) ?v_125)) (or (or P22 ?v_83) P25)) (or (or ?v_6 ?v_86) ?v_117)) (or (or ?v_126 ?v_215) ?v_94)) (or (or ?v_67 ?v_129) ?v_138)) (or (or ?v_100 ?v_82) ?v_128)) (or (or ?v_55 P14) ?v_118)) (or (or ?v_162 ?v_129) P12)) (or (or ?v_165 ?v_64) ?v_25)) (or ?v_222 ?v_130)) (or (or ?v_40 ?v_167) ?v_131)) (or (or ?v_125 ?v_132) ?v_15)) (or (or ?v_133 ?v_14) P15)) (or (or ?v_8 ?v_20) ?v_57)) (or (or P27 P15) ?v_134)) (or (or ?v_87 ?v_135) ?v_136)) (or (or ?v_149 ?v_12) ?v_7)) (or (or ?v_137 ?v_138) ?v_242)) (or (or ?v_161 ?v_118) ?v_116)) (or (or ?v_139 ?v_140) ?v_141)) (or (or ?v_75 ?v_13) P30)) (or (or P16 P49) ?v_233)) (or (or ?v_104 ?v_17) ?v_27)) (or (or ?v_109 ?v_201) ?v_257)) (or (or ?v_142 ?v_86) ?v_143)) (or (or ?v_27 ?v_144) P0)) (or (or ?v_261 ?v_116) P39)) (or (or P5 ?v_145) ?v_146)) (or (or ?v_124 ?v_35) ?v_41)) (or (or P49 ?v_147) ?v_47)) (or (or ?v_219 P10) P31)) (or (or ?v_205 ?v_181) ?v_78)) (or (or ?v_32 ?v_50) P15)) (or (or P23 ?v_26) ?v_65)) (or (or ?v_65 P26) ?v_248)) (or (or ?v_149 ?v_97) ?v_150)) (or (or P13 ?v_151) ?v_56)) (or (or ?v_9 ?v_123) ?v_188)) (or (or ?v_138 ?v_153) ?v_154)) (or (or ?v_244 ?v_73) ?v_120)) (or (or P33 ?v_156) ?v_3)) (or (or ?v_157 P28) ?v_158)) (or (or ?v_159 ?v_54) ?v_48)) (or ?v_200 ?v_132)) (or (or ?v_160 ?v_101) P4)) (or (or ?v_135 ?v_209) ?v_44)) (or (or ?v_114 ?v_179) P40)) (or (or ?v_91 ?v_4) P39)) (or (or ?v_60 ?v_161) ?v_198)) (or (or ?v_238 ?v_86) ?v_193)) (or (or ?v_114 ?v_163) ?v_78)) (or (or ?v_117 ?v_50) ?v_36)) (or (or ?v_106 ?v_67) ?v_228)) (or (or ?v_25 ?v_65) ?v_118)) (or (or ?v_164 ?v_108) ?v_96)) (or (or ?v_168 ?v_37) ?v_131)) (or (or ?v_165 ?v_44) ?v_50)) (or (or ?v_53 ?v_256) ?v_74)) (or (or ?v_153 ?v_187) ?v_85)) (or (or ?v_49 ?v_120) ?v_56)) (or (or ?v_32 ?v_167) ?v_129)) (or (or ?v_89 ?v_173) P39)) (or (or ?v_146 ?v_14) ?v_167)) (or (or P33 ?v_76) ?v_88)) (or (or ?v_68 ?v_145) ?v_169)) (or (or ?v_170 ?v_161) ?v_234)) (or (or ?v_175 ?v_172) ?v_173)) (or (or ?v_174 ?v_171) ?v_26)) (or (or ?v_191 ?v_175) ?v_255)) (or (or ?v_192 ?v_177) ?v_178)) (or (or ?v_44 ?v_93) ?v_90)) (or (or ?v_23 ?v_86) P36)) (or (or ?v_88 ?v_68) ?v_122)) (or (or ?v_101 ?v_107) ?v_179)) (or (or ?v_104 ?v_180) ?v_53)) (or (or ?v_181 P10) ?v_182)) (or (or ?v_79 ?v_137) ?v_183)) (or (or ?v_223 P2) P34)) (or (or ?v_178 ?v_184) ?v_109)) (or (or ?v_185 ?v_27) ?v_118)) (or (or ?v_186 P34) ?v_44)) (or (or ?v_139 ?v_13) ?v_187)) (or (or ?v_53 ?v_135) ?v_126)) (or (or ?v_29 ?v_143) ?v_188)) (or (or ?v_92 ?v_262) ?v_105)) (or (or ?v_14 ?v_189) ?v_38)) (or (or ?v_27 ?v_42) ?v_14)) (or (or ?v_74 P2) ?v_227)) (or (or ?v_190 ?v_118) ?v_158)) (or (or ?v_170 ?v_218) ?v_132)) (or (or ?v_207 ?v_27) ?v_191)) (or (or ?v_116 ?v_44) ?v_203)) (or (or ?v_164 ?v_99) P3)) (or (or P38 ?v_192) ?v_182)) (or (or ?v_94 ?v_193) ?v_117)) (or (or ?v_111 ?v_194) ?v_63)) (or (or ?v_57 ?v_159) ?v_195)) (or (or ?v_197 ?v_58) ?v_73)) (or (or P29 ?v_31) ?v_77)) (or (or ?v_105 ?v_111) ?v_38)) (or (or ?v_32 ?v_25) P10)) (or (or ?v_146 ?v_9) ?v_165)) (or (or ?v_183 ?v_196) ?v_65)) (or (or ?v_162 ?v_123) ?v_77)) (or (or ?v_26 ?v_197) ?v_55)) (or (or ?v_51 ?v_12) ?v_172)) (or (or ?v_118 ?v_198) ?v_21)) (or (or ?v_141 ?v_17) P4)) (or (or ?v_195 P19) ?v_110)) (or (or ?v_199 ?v_98) ?v_194)) (or ?v_200 ?v_97)) (or (or ?v_142 P3) ?v_25)) (or (or ?v_201 ?v_156) ?v_202)) (or (or ?v_203 ?v_50) ?v_126)) (or (or ?v_204 ?v_191) ?v_96)) (or (or ?v_112 ?v_205) ?v_24)) (or (or ?v_206 P12) ?v_88)) (or (or ?v_26 P36) P29)) (or (or ?v_184 P14) ?v_139)) (or (or ?v_4 ?v_41) P5)) (or (or ?v_11 ?v_249) ?v_146)) (or (or P18 ?v_155) ?v_230)) (or (or ?v_23 P28) ?v_190)) (or (or ?v_207 ?v_40) ?v_208)) (or (or ?v_170 P37) ?v_53)) (or (or ?v_42 ?v_72) ?v_30)) (or (or ?v_209 P27) ?v_45)) (or (or ?v_100 ?v_114) ?v_180)) (or (or ?v_210 ?v_174) P10)) (or (or ?v_64 P38) ?v_135)) (or (or P42 ?v_32) ?v_147)) (or (or ?v_211 P33) ?v_115)) (or (or ?v_80 ?v_131) ?v_70)) (or (or ?v_193 ?v_11) P46)) (or (or ?v_8 ?v_157) P24)) (or (or ?v_87 P44) ?v_124)) (or (or ?v_80 ?v_203) ?v_101)) (or (or ?v_197 P32) ?v_184)) (or (or P19 ?v_212) ?v_39)) (or (or P30 ?v_58) ?v_36)) (or (or ?v_168 ?v_128) ?v_34)) (or (or ?v_178 ?v_118) ?v_183)) (or (or ?v_201 ?v_169) ?v_128)) (or (or P32 P28) P17)) (or (or ?v_63 ?v_14) ?v_213)) (or (or ?v_172 ?v_122) ?v_134)) (or (or ?v_87 ?v_193) P20)) (or (or ?v_214 ?v_215) ?v_124)) (or (or P19 ?v_90) ?v_204)) (or (or ?v_140 ?v_80) ?v_62)) (or (or ?v_72 ?v_143) ?v_232)) (or (or ?v_44 ?v_154) ?v_123)) (or (or ?v_216 ?v_169) ?v_86)) (or (or ?v_97 P34) ?v_180)) (or (or ?v_199 ?v_49) ?v_128)) (or (or ?v_172 ?v_217) P8)) (or (or ?v_75 ?v_4) ?v_144)) (or (or ?v_49 ?v_218) ?v_64)) (or (or ?v_13 ?v_125) ?v_83)) (or (or ?v_183 P24) ?v_160)) (or (or ?v_196 ?v_219) P21)) (or (or ?v_8 ?v_192) ?v_131)) (or (or ?v_46 ?v_12) ?v_52)) (or (or ?v_114 ?v_27) P33)) (or (or ?v_168 ?v_91) P49)) (or (or ?v_86 ?v_104) ?v_220)) (or (or P49 ?v_107) ?v_21)) (or (or ?v_17 ?v_201) ?v_125)) (or (or ?v_28 ?v_95) ?v_221)) (or ?v_222 ?v_116)) (or (or ?v_94 ?v_78) ?v_92)) (or (or ?v_220 ?v_189) ?v_118)) (or (or ?v_61 ?v_220) ?v_123)) (or (or ?v_136 ?v_89) ?v_104)) (or (or ?v_175 ?v_9) ?v_70)) (or (or ?v_162 ?v_73) ?v_180)) (or (or ?v_34 ?v_156) ?v_105)) (or (or ?v_137 ?v_14) ?v_45)) (or (or P11 P30) ?v_207)) (or (or ?v_115 ?v_115) ?v_223)) (or (or ?v_30 ?v_12) ?v_112)) (or (or P19 ?v_203) ?v_29)) (or (or ?v_35 ?v_71) ?v_224)) (or (or ?v_162 P31) ?v_150)) (or (or ?v_155 ?v_195) ?v_246)) (or (or ?v_109 ?v_166) ?v_0)) (or (or ?v_108 P37) ?v_114)) (or (or ?v_258 ?v_191) ?v_225)) (or (or ?v_142 ?v_64) ?v_31)) (or (or P5 ?v_164) P21)) (or (or ?v_226 ?v_98) P13)) (or (or ?v_28 ?v_134) ?v_56)) (or (or ?v_143 ?v_195) ?v_71)) (or (or ?v_108 ?v_142) P40)) (or (or ?v_85 ?v_227) P1)) (or (or ?v_228 ?v_154) ?v_114)) (or (or ?v_57 P17) ?v_229)) (or (or ?v_11 ?v_133) ?v_229)) (or (or ?v_35 ?v_9) ?v_126)) (or (or ?v_230 ?v_40) ?v_62)) (or (or P38 ?v_45) ?v_155)) (or (or ?v_157 ?v_231) ?v_177)) (or (or ?v_35 ?v_51) P4)) (or (or ?v_102 ?v_178) ?v_188)) (or (or ?v_211 ?v_137) ?v_189)) (or (or ?v_232 ?v_43) ?v_15)) (or (or ?v_233 ?v_21) ?v_95)) (or (or P45 ?v_120) ?v_47)) (or (or ?v_90 ?v_109) ?v_17)) (or (or ?v_205 ?v_234) ?v_80)) (or (or ?v_235 ?v_107) ?v_29)) (or (or ?v_236 ?v_172) ?v_237)) (or (or ?v_116 ?v_6) ?v_179)) (or (or ?v_140 ?v_217) P40)) (or (or ?v_47 ?v_189) ?v_207)) (or (or P10 ?v_174) ?v_184)) (or (or ?v_239 ?v_90) ?v_47)) (or (or ?v_251 ?v_7) ?v_3)) (or (or ?v_238 ?v_150) ?v_99)) (or (or ?v_240 ?v_150) ?v_234)) (or (or ?v_35 ?v_177) ?v_189)) (or (or P2 P3) P44)) (or (or P43 ?v_176) ?v_146)) (or (or P48 ?v_162) ?v_212)) (or (or P8 ?v_105) ?v_124)) (or (or ?v_62 ?v_162) P5)) (or (or ?v_157 ?v_146) P1)) (or (or ?v_223 ?v_213) ?v_53)) (or (or ?v_230 ?v_143) ?v_20)) (or (or ?v_43 ?v_27) ?v_20)) (or (or P34 ?v_169) ?v_165)) (or (or P45 P46) ?v_163)) (or (or (not P11) ?v_13) P12)) (or (or ?v_226 ?v_239) ?v_240)) (or (or ?v_6 ?v_201) ?v_175)) (or (or ?v_105 ?v_135) P9)) (or (or P23 ?v_51) ?v_107)) (or (or P20 ?v_176) P37)) (or (or P48 P44) ?v_253)) (or (or ?v_120 P19) ?v_139)) (or (or ?v_110 ?v_70) P9)) (or (or ?v_83 ?v_14) ?v_107)) (or (or ?v_245 ?v_109) ?v_61)) (or (or P13 ?v_31) ?v_56)) (or (or P28 P9) ?v_83)) (or (or ?v_77 ?v_232) ?v_241)) (or (or ?v_232 ?v_224) ?v_190)) (or (or ?v_117 P35) ?v_242)) (or (or ?v_168 ?v_29) ?v_82)) (or (or ?v_171 ?v_243) ?v_45)) (or (or P44 ?v_65) ?v_23)) (or (or ?v_244 ?v_165) ?v_70)) (or (or ?v_185 ?v_54) ?v_44)) (or (or ?v_85 P18) ?v_186)) (or (or ?v_27 ?v_234) ?v_130)) (or (or ?v_151 ?v_60) ?v_193)) (or (or ?v_101 ?v_176) ?v_142)) (or (or ?v_110 ?v_155) ?v_40)) (or (or P25 ?v_216) ?v_15)) (or (or ?v_188 ?v_107) P11)) (or (or ?v_177 P25) ?v_208)) (or (or P14 ?v_204) P17)) (or (or ?v_141 ?v_90) ?v_228)) (or (or ?v_15 ?v_203) ?v_57)) (or (or ?v_39 ?v_94) P30)) (or (or ?v_242 ?v_145) P34)) (or (or ?v_125 ?v_245) P40)) (or (or ?v_128 ?v_26) ?v_151)) (or (or ?v_28 ?v_67) ?v_232)) (or (or ?v_235 ?v_177) ?v_79)) (or (or ?v_147 ?v_4) ?v_28)) (or (or ?v_60 ?v_143) P27)) (or (or ?v_246 ?v_101) P24)) (or (or ?v_43 ?v_168) ?v_55)) (or (or ?v_247 ?v_108) P11)) (or (or ?v_237 ?v_112) ?v_149)) (or (or ?v_60 ?v_129) ?v_57)) (or (or ?v_65 ?v_263) ?v_131)) (or (or ?v_162 P12) ?v_242)) (or (or P41 ?v_128) ?v_205)) (or (or ?v_158 P32) ?v_248)) (or (or ?v_46 ?v_142) ?v_42)) (or (or P2 ?v_29) P46)) (or (or ?v_156 ?v_77) ?v_212)) (or (or P30 ?v_138) ?v_249)) (or (or ?v_250 P14) ?v_237)) (or (or P34 ?v_237) ?v_215)) (or (or ?v_211 P37) P43)) (or (or ?v_155 ?v_173) ?v_144)) (or (or P36 ?v_117) ?v_202)) (or (or P15 ?v_251) ?v_7)) (or (or ?v_123 ?v_138) ?v_247)) (or (or ?v_51 P24) ?v_176)) (or (or ?v_182 ?v_252) ?v_28)) (or (or ?v_253 ?v_164) ?v_172)) (or (or ?v_195 ?v_99) ?v_248)) (or (or ?v_228 ?v_46) ?v_136)) (or (or ?v_6 ?v_190) ?v_40)) (or (or ?v_67 ?v_117) ?v_163)) (or (or P47 ?v_134) ?v_166)) (or (or ?v_251 ?v_44) ?v_29)) (or (or ?v_79 ?v_64) P2)) (or (or ?v_164 ?v_78) P22)) (or (or ?v_244 ?v_224) ?v_20)) (or (or P12 P25) ?v_82)) (or (or ?v_250 ?v_139) ?v_106)) (or (or ?v_46 ?v_89) ?v_84)) (or (or ?v_254 ?v_74) ?v_235)) (or (or ?v_168 P17) ?v_175)) (or (or P41 ?v_3) ?v_93)) (or (or ?v_108 ?v_126) ?v_199)) (or (or ?v_213 P21) ?v_214)) (or (or P13 ?v_29) P40)) (or (or ?v_230 P30) ?v_223)) (or (or P1 ?v_78) ?v_95)) (or (or ?v_132 ?v_53) ?v_90)) (or (or ?v_144 ?v_231) P4)) (or (or ?v_97 ?v_232) ?v_85)) (or (or ?v_124 ?v_165) ?v_33)) (or (or ?v_92 ?v_79) ?v_123)) (or (or ?v_255 ?v_253) ?v_8)) (or (or ?v_76 ?v_178) ?v_204)) (or (or ?v_256 ?v_192) ?v_99)) (or (or ?v_254 ?v_19) ?v_233)) (or (or ?v_234 P13) ?v_217)) (or (or ?v_35 ?v_257) ?v_190)) (or (or P25 ?v_259) ?v_11)) (or (or ?v_233 P26) ?v_86)) (or (or ?v_256 ?v_94) ?v_95)) (or (or ?v_13 ?v_192) ?v_202)) (or (or ?v_20 P49) ?v_41)) (or (or ?v_241 ?v_211) P13)) (or (or ?v_76 ?v_93) ?v_54)) (or (or ?v_258 ?v_171) ?v_66)) (or (or P32 ?v_57) (not ?v_4))) (or (or ?v_15 ?v_117) ?v_34)) (or (or P1 ?v_226) ?v_258)) (or (or P2 ?v_155) ?v_128)) (or (or P11 ?v_63) ?v_66)) (or (or ?v_56 ?v_32) ?v_29)) (or (or ?v_88 ?v_247) ?v_129)) (or (or ?v_173 P14) ?v_126)) (or (or ?v_143 ?v_238) ?v_105)) (or (or ?v_178 ?v_244) ?v_70)) (or (or ?v_122 ?v_221) ?v_12)) (or (or ?v_123 ?v_168) ?v_216)) (or (or P5 ?v_209) P28)) (or (or ?v_45 P19) P2)) (or (or ?v_47 ?v_210) P39)) (or (or ?v_93 ?v_44) ?v_132)) (or (or ?v_83 ?v_72) ?v_90)) (or (or P32 P48) P23)) (or (or P19 ?v_33) ?v_164)) (or (or ?v_79 ?v_17) ?v_213)) (or (or ?v_227 P18) ?v_109)) (or (or ?v_177 ?v_135) ?v_54)) (or (or ?v_244 ?v_259) ?v_141)) (or (or P47 ?v_232) P19)) (or ?v_264 ?v_252)) (or (or ?v_86 ?v_150) ?v_188)) (or (or ?v_26 ?v_75) ?v_248)) (or (or ?v_168 ?v_243) ?v_108)) (or (or ?v_156 ?v_181) ?v_260)) (or (or P28 ?v_99) ?v_246)) (or (or ?v_132 ?v_11) ?v_242)) (or (or ?v_46 ?v_116) ?v_217)) (or (or ?v_136 P14) ?v_9)) (or (or ?v_53 ?v_149) ?v_55)) (or (or P48 P29) P47)) (or (or ?v_230 ?v_213) ?v_82)) (or (or ?v_199 P16) ?v_128)) (or (or ?v_109 P10) ?v_143)) (or (or ?v_194 P47) ?v_129)) (or (or ?v_219 ?v_120) ?v_178)) (or (or ?v_108 ?v_237) P3)) (or (or ?v_90 ?v_100) P25)) (or (or ?v_29 ?v_214) ?v_24)) (or (or ?v_259 ?v_129) ?v_212)) (or (or ?v_1 ?v_126) P6)) (or (or P7 ?v_254) ?v_63)) (or (or ?v_256 ?v_45) ?v_102)) (or (or ?v_53 ?v_157) P19)) (or (or ?v_11 P8) ?v_182)) (or (or ?v_169 ?v_79) ?v_145)) (or (or ?v_7 ?v_214) ?v_108)) (or (or ?v_235 ?v_43) P10)) (or (or ?v_39 ?v_153) ?v_37)) (or (or ?v_55 ?v_187) P48)) (or (or ?v_87 P48) ?v_237)) (or (or P12 ?v_0) ?v_67)) (or (or ?v_54 ?v_63) P20)) (or (or ?v_42 P41) P19)) (or (or ?v_223 ?v_30) ?v_256)) (or (or P16 ?v_147) P22)) (or (or P18 ?v_1) ?v_129)) (or (or ?v_179 ?v_100) ?v_250)) (or (or ?v_140 ?v_15) ?v_21)) (or (or ?v_73 ?v_246) ?v_170)) (or (or ?v_75 P34) ?v_132)) (or (or ?v_40 ?v_247) P19)) (or (or ?v_139 ?v_122) ?v_85)) (or (or P25 ?v_144) ?v_143)) (or (or ?v_220 P6) ?v_25)) (or (or ?v_244 ?v_77) P48)) (or (or ?v_91 ?v_12) P7)) (or (or ?v_176 ?v_236) ?v_149)) (or (or P8 ?v_225) P39)) (or (or ?v_45 ?v_49) ?v_129)) (or (or ?v_48 ?v_100) P13)) (or (or P38 P40) ?v_60)) (or (or ?v_132 ?v_24) ?v_58)) (or (or ?v_62 ?v_42) P29)) (or (or ?v_112 ?v_146) ?v_122)) (or (or P8 ?v_74) ?v_84)) (or (or ?v_199 P6) ?v_204)) (or (or ?v_247 ?v_138) P13)) (or (or ?v_55 ?v_49) ?v_248)) (or (or ?v_15 ?v_123) ?v_129)) (or (or ?v_31 ?v_101) ?v_186)) (or (or ?v_128 ?v_133) ?v_116)) (or (or ?v_205 P34) ?v_257)) (or (or ?v_187 ?v_72) ?v_92)) (or (or ?v_132 ?v_172) ?v_186)) (or (or P29 ?v_17) P33)) (or (or ?v_61 ?v_53) ?v_72)) (or (or ?v_254 ?v_247) ?v_210)) (or (or ?v_116 P29) ?v_102)) (or (or ?v_249 ?v_195) ?v_107)) (or (or ?v_125 P2) ?v_39)) (or (or ?v_247 ?v_100) ?v_11)) (or (or ?v_112 ?v_122) ?v_117)) (or (or P46 ?v_192) ?v_189)) (or (or ?v_171 ?v_96) ?v_150)) (or (or ?v_156 ?v_202) P29)) (or (or ?v_138 ?v_261) P17)) (or (or ?v_220 P21) ?v_164)) (or (or ?v_236 ?v_259) ?v_96)) (or (or ?v_20 ?v_38) P33)) (or (or ?v_14 ?v_49) P47)) (or (or ?v_104 ?v_258) ?v_130)) (or (or ?v_32 ?v_259) ?v_23)) (or (or ?v_120 ?v_74) ?v_42)) (or (or P45 ?v_239) ?v_221)) (or (or ?v_70 ?v_41) ?v_182)) (or (or ?v_157 ?v_87) ?v_13)) (or (or P47 ?v_6) ?v_141)) (or (or P17 P43) ?v_66)) (or (or ?v_64 P49) ?v_199)) (or (or ?v_45 ?v_243) ?v_197)) (or (or ?v_45 ?v_262) ?v_31)) (or (or P28 P35) ?v_93)) (or (or ?v_45 ?v_244) ?v_215)) (or (or ?v_156 ?v_103) ?v_34)) (or (or ?v_136 ?v_74) ?v_32)) (or (or ?v_162 ?v_247) ?v_134)) (or (or ?v_46 ?v_70) ?v_253)) (or (or ?v_133 ?v_109) ?v_29)) (or (or ?v_238 ?v_207) ?v_80)) (or (or ?v_163 ?v_220) ?v_114)) (or (or P4 ?v_157) ?v_128)) (or (or P45 ?v_43) ?v_70)) (or (or P33 ?v_128) ?v_40)) (or (or ?v_245 ?v_210) ?v_171)) (or (or ?v_28 ?v_202) ?v_263)) (or (or ?v_251 ?v_165) ?v_190)) (or (or ?v_77 ?v_107) ?v_93)) (or (or ?v_243 ?v_28) ?v_56)) (or (or ?v_82 ?v_141) P36)) (or ?v_264 ?v_98)) (or (or ?v_7 (not ?v_30)) ?v_213)) (or (or ?v_40 ?v_182) ?v_236)) (or (or ?v_259 ?v_255) ?v_228)) (or (or ?v_198 P45) ?v_206)) (or (or ?v_49 ?v_228) ?v_4)) (or (or ?v_194 ?v_40) ?v_221)) (or (or ?v_258 ?v_115) ?v_153)) (or (or ?v_56 ?v_167) P34)) (or (or ?v_212 ?v_1) ?v_131)) (or (or ?v_147 P36) ?v_42)))))))))))))))))))))))))))))))))))))))))))
(check-sat)
(exit)
